20522 39391
53365 8584
9357 11562
52741 35937
19917 3387
60479 12949
46635 57540
59155 3656
62733 44130
61575 32918
62729 18484
33508 34674
1408 35948
57613 53608
65219 15475
9107 25976
65303 57509
42462 59727
38643 3839
29294 5200
26284 18847
31173 36778
15901 10651
51417 43832
62171 9245
50519 37843
19693 33833
22320 32050
62256 60475
39273 36179
61493 2536
47125 32187
21880 46909
52786 63802
21797 45128
15738 39852
29251 39311
46228 44109
49218 14666
56522 37040
23329 33402
24543 64186
25421 49152
62612 1004
26809 31033
29843 2234
36599 64140
1357 36421
65136 4723
48441 14000
48656 63633
45635 23981
22468 32490
28788 39576
19823 7415
6874 48660
14756 41189
25765 17988
37641 42298
48666 10565
34752 38892
5406 4265
17187 32763
48571 22555
14767 29614
